NAME: bip_50_0
TYPE: TSP
COMMENT: bip_50_0
DIMENSION: 50
EDGE_WEIGHT_TYPE: EUC_2D
NODE_COORD_SECTION
1 53 64
2 39 42
3 49 31
4 5 47
5 3 84
6 15 68
7 15 10
8 67 23
9 18 35
10 15 77
11 69 71
12 94 34
13 60 33
14 3 70
15 28 71
16 30 94
17 48 71
18 92 16
19 84 11
20 57 14
21 94 16
22 92 13
23 47 37
24 53 14
25 26 81
26 412 421
27 409 447
28 428 415
29 484 473
30 474 422
31 417 450
32 452 437
33 426 474
34 476 444
35 424 481
36 424 429
37 418 450
38 487 402
39 414 481
40 466 408
41 452 489
42 444 424
43 482 403
44 471 434
45 405 447
46 442 431
47 467 496
48 492 433
49 432 436
50 429 437
